(set-logic ALL)
(declare-fun i1 () Int)
(declare-fun it1 () Int)
(declare-fun it2 () Int)
(declare-fun i2 () Int)
(declare-fun it3 () Int)
(declare-fun i3 () Int)
(declare-fun it4 () Int)
(declare-fun i4 () Int)
(declare-fun it5 () Int)
(declare-fun i5 () Int)
(declare-fun it6 () Int)
(declare-fun i6 () Int)
(declare-fun i7 () Int)
(declare-fun it7 () Int)
(declare-fun it163 () Int)
(declare-fun it164 () Int)
(declare-fun it165 () Int)
(declare-fun it166 () Int)
(declare-fun it167 () Int)
(declare-fun it168 () Int)
(declare-fun it169 () Int)
(declare-fun it66 () Int)
(assert (= (+ i1 (- 1)) 0))
(assert (= (+ it1 (- 2)) 0))
(assert (= (+ (* i2 (- 1)) it2 (- 1)) 0))
(assert (= (+ (* i3 (- 1)) it3) 0))
(assert (= (+ (* i4 (- 1)) it4) 0))
(assert (= (+ (* i5 (- 1)) it5) 0))
(assert (= (+ (* i6 (- 1)) it6) 0))
(assert (= (+ it7 (* i7 (- 1))) 0))
(assert (and (<= (+ it6 (- 5)) 0)
     (<= (+ (* it6 (- 1)) (- 5)) 0)
     (> it3 0)
     (= (+ it1 (- 2)) 0)))
(assert (= (+ it163 (- 3)) 0))
(assert (= (+ (* it2 (- 1)) it164 (- 2)) 0))
(assert (= (+ it165 (* it3 (- 1))) 0))
(assert (= (+ it166 (* it3 (- 1))) 0))
(assert (= (+ (* it7 (- 1)) it167) 0))
(assert (= (+ it168 (* it6 (- 1))) 0))
(assert (= (+ (* it7 (- 1)) it169) 0))
(assert (let ((a!1 (* (exp it166 2) (exp (exp 4 (+ it66 (- 1))) (+ 0 2))))
      (a!2 (* (* (exp it168 3) (exp 9 (+ it66 (- 1)))) (+ 0 (- 3))))
      (a!3 (* (* (exp 9 (+ it66 (- 1))) (+ 0 it167)) (+ 0 3)))
      (a!5 (* (* (exp it168 3) (exp 9 (+ it66 (- 1)))) (+ 0 (- 1))))
      (a!7 (> (+ (* (exp it168 5) (+ 0 (- 1)))
                 (* (exp it166 2) (+ 0 (- 1)))
                 (+ 0 it167))
              (+ 0 0))))
(let ((a!4 (> (+ (* (exp it168 5) (+ 0 (- 1)))
                 (* a!1 (+ 0 (- 4)))
                 a!2
                 (exp it168 3)
                 a!3)
              (+ 0 0)))
      (a!6 (+ (* (exp it168 5) (+ 0 (- 1)))
              (* a!1 (+ 0 (- 1)))
              a!5
              (exp it168 3)
              (* (exp 9 (+ it66 (- 1))) (+ 0 it167)))))
  (and a!4
       (> (* it166 2) 0)
       (>= (+ it163 (- 3)) 0)
       (> a!6 (+ 0 0))
       (> it166 0)
       (>= (+ it66 (- 1)) 0)
       (>= (+ (* it163 (- 1)) 3) 0)
       a!7))))
(check-sat)
